(set-logic ALL)
(declare-fun var0 () String)
(assert (str.in_re var0 (re.++ (re.union (re.union (re.* (str.to_re "0")) (re.* (str.to_re "111"))) (re.union (re.union (str.to_re "22") (str.to_re "3")) (re.union (str.to_re "44") (str.to_re "555")))) (re.+ (re.* (re.+ (str.to_re "6")))))))
(assert (<= 15 (str.len var0)))
(check-sat)